0 0 0 0
0 1 1 0
0 2 0 0
0 3 1 0
0 4 0 5
0 5 0 4
0 6 2 7
0 7 2 6
0 8 0 4
0 9 0 5
0 10 0 7
0 11 0 7
0 12 1 17
0 13 2 4
0 14 0 12
0 15 0 15
0 16 0 13
0 17 0 13
0 18 1 12
0 19 0 13
0 20 0 16
0 21 0 20
0 22 2 17
0 23 2 9
0 24 0 6
0 25 0 20
0 26 2 22
0 27 1 23
0 28 2 25
0 29 1 24
0 30 2 20
0 31 0 29
